Test: battleship-15-15-unsat.cnf
Options: -no-inverting-opt -sym-var-bump
WARNING: for repeatability, setting FPU to use double precision
============================[ Problem Statistics ]=============================
|                                                                             |
|  Number of symmetries:           10                                         |
|  Number of invertingSyms:         0                                         |
|  Number of variables:           225                                         |
|  Number of clauses:            1800                                         |
|  Parse time:                   0.00 s                                       |
|                                                                             |
============================[ Search Statistics ]==============================
| Conflicts |          ORIGINAL         |          LEARNT          | Progress |
|           |    Vars  Clauses Literals |    Limit  Clauses Lit/Cl |          |
===============================================================================
|       100 |     225     1800     6525 |      660      112     46 |  0.002 % |
|       250 |     225     1800     6525 |      726      262     52 |  0.002 % |
|       475 |     225     1800     6525 |      798      489     55 |  0.002 % |
|       812 |     225     1800     6525 |      878      417     50 |  0.002 % |
|      1318 |     225     1800     6525 |      966      468     51 |  0.002 % |
|      2077 |     225     1800     6525 |     1062      686     51 |  0.002 % |
|      3216 |     225     1800     6525 |     1169      692     48 |  0.002 % |
|      4924 |     225     1800     6525 |     1286      591     49 |  0.002 % |
|      7486 |     225     1800     6525 |     1414     1106     63 |  0.002 % |
|     11330 |     225     1800     6525 |     1556     1244     59 |  0.002 % |
|     17096 |     225     1800     6525 |     1711     1332     58 |  0.002 % |
|     25745 |     225     1800     6525 |     1883     1084     50 |  0.002 % |
|     38719 |     225     1800     6525 |     2071     1324     59 |  0.002 % |
|     58180 |     225     1800     6525 |     2278     1496     54 |  0.002 % |
|     87372 |     225     1800     6525 |     2506     2352     69 |  0.002 % |
|    131161 |     225     1800     6525 |     2756     1822     52 |  0.002 % |
|    196845 |     225     1800     6525 |     3032     2276     57 |  0.002 % |
|    295371 |     225     1800     6525 |     3335     2402     55 |  0.002 % |
|    443160 |     225     1800     6525 |     3669     3361     53 |  0.002 % |
|    664843 |     225     1800     6525 |     4036     2086     53 |  0.002 % |
|    997368 |     225     1800     6525 |     4440     3807     53 |  0.002 % |
|   1496156 |     225     1800     6525 |     4884     3286     53 |  0.002 % |
|   2244338 |     225     1800     6525 |     5372     4189     53 |  0.002 % |
|   3366612 |     225     1800     6525 |     5909     2732     53 |  0.002 % |
|   5050023 |     225     1800     6525 |     6500     4548     56 |  0.002 % |
|   7575139 |     225     1800     6525 |     7150     4667     60 |  0.002 % |
|  11362814 |     225     1800     6525 |     7865     5839     64 |  0.002 % |
|  17044326 |     225     1800     6525 |     8652     5169     66 |  0.002 % |
===============================================================================
restarts              : 28154
conflicts             : 18661660       (26277 /sec)
symconflicts          : 548            (1 /sec)
decisions             : 24440731       (0.00 % random) (34414 /sec)
propagations          : 550244072      (774773 /sec)
sympropagations       : 18297          (26 /sec)
conflict literals     : 1136934135     (8.85 % deleted)
literals     : 1136934135     (8.85 % deleted)

HEURISTIC USAGES
random                : 0           
activity w/ lookahead : 0           
activity no lookahead : 0           
original sp           : 24440731    
sym count             : 0           

Memory used           : 23.00 MB
CPU time              : 710.2 s

UNSATISFIABLE
